c Mesh Graph
c 30 Rows, 30 columns, capacities in range [0, 100]
p max 902 2670
n 1 s
n 902 t
a 1 31 300
a 1 30 300
a 1 29 300
a 1 28 300
a 1 27 300
a 1 26 300
a 1 25 300
a 1 24 300
a 1 23 300
a 1 22 300
a 1 21 300
a 1 20 300
a 1 19 300
a 1 18 300
a 1 17 300
a 1 16 300
a 1 15 300
a 1 14 300
a 1 13 300
a 1 12 300
a 1 11 300
a 1 10 300
a 1 9 300
a 1 8 300
a 1 7 300
a 1 6 300
a 1 5 300
a 1 4 300
a 1 3 300
a 1 2 300
a 2 33 19
a 2 32 77
a 2 61 45
a 3 34 79
a 3 33 93
a 3 32 49
a 4 35 19
a 4 34 83
a 4 33 35
a 5 36 63
a 5 35 89
a 5 34 9
a 6 37 77
a 6 36 5
a 6 35 98
a 7 38 4
a 7 37 32
a 7 36 8
a 8 39 100
a 8 38 100
a 8 37 96
a 9 40 40
a 9 39 32
a 9 38 47
a 10 41 49
a 10 40 97
a 10 39 56
a 11 42 11
a 11 41 3
a 11 40 14
a 12 43 39
a 12 42 99
a 12 41 71
a 13 44 31
a 13 43 47
a 13 42 41
a 14 45 13
a 14 44 81
a 14 43 19
a 15 46 53
a 15 45 89
a 15 44 89
a 16 47 58
a 16 46 39
a 16 45 3
a 17 48 89
a 17 47 98
a 17 46 79
a 18 49 40
a 18 48 45
a 18 47 82
a 19 50 23
a 19 49 44
a 19 48 81
a 20 51 20
a 20 50 99
a 20 49 72
a 21 52 74
a 21 51 64
a 21 50 20
a 22 53 72
a 22 52 34
a 22 51 82
a 23 54 71
a 23 53 74
a 23 52 20
a 24 55 3
a 24 54 44
a 24 53 51
a 25 56 44
a 25 55 84
a 25 54 15
a 26 57 82
a 26 56 86
a 26 55 68
a 27 58 31
a 27 57 64
a 27 56 77
a 28 59 76
a 28 58 97
a 28 57 17
a 29 60 19
a 29 59 77
a 29 58 8
a 30 61 69
a 30 60 100
a 30 59 30
a 31 32 32
a 31 61 71
a 31 60 1
a 32 63 17
a 32 62 53
a 32 91 74
a 33 64 42
a 33 63 24
a 33 62 98
a 34 65 85
a 34 64 26
a 34 63 68
a 35 66 68
a 35 65 41
a 35 64 70
a 36 67 5
a 36 66 60
a 36 65 65
a 37 68 68
a 37 67 88
a 37 66 46
a 38 69 64
a 38 68 56
a 38 67 77
a 39 70 92
a 39 69 63
a 39 68 4
a 40 71 43
a 40 70 44
a 40 69 22
a 41 72 13
a 41 71 45
a 41 70 42
a 42 73 17
a 42 72 70
a 42 71 73
a 43 74 41
a 43 73 67
a 43 72 89
a 44 75 66
a 44 74 86
a 44 73 82
a 45 76 58
a 45 75 8
a 45 74 18
a 46 77 17
a 46 76 72
a 46 75 37
a 47 78 56
a 47 77 18
a 47 76 41
a 48 79 11
a 48 78 46
a 48 77 8
a 49 80 73
a 49 79 49
a 49 78 71
a 50 81 17
a 50 80 22
a 50 79 14
a 51 82 13
a 51 81 63
a 51 80 56
a 52 83 82
a 52 82 35
a 52 81 68
a 53 84 1
a 53 83 75
a 53 82 37
a 54 85 86
a 54 84 56
a 54 83 77
a 55 86 93
a 55 85 73
a 55 84 94
a 56 87 65
a 56 86 9
a 56 85 52
a 57 88 34
a 57 87 49
a 57 86 20
a 58 89 79
a 58 88 8
a 58 87 76
a 59 90 79
a 59 89 30
a 59 88 38
a 60 91 100
a 60 90 43
a 60 89 63
a 61 62 62
a 61 91 50
a 61 90 31
a 62 93 48
a 62 92 17
a 62 121 43
a 63 94 22
a 63 93 53
a 63 92 76
a 64 95 29
a 64 94 81
a 64 93 76
a 65 96 53
a 65 95 27
a 65 94 14
a 66 97 13
a 66 96 78
a 66 95 6
a 67 98 61
a 67 97 49
a 67 96 22
a 68 99 20
a 68 98 76
a 68 97 55
a 69 100 49
a 69 99 14
a 69 98 85
a 70 101 43
a 70 100 28
a 70 99 63
a 71 102 92
a 71 101 58
a 71 100 62
a 72 103 60
a 72 102 52
a 72 101 75
a 73 104 65
a 73 103 27
a 73 102 22
a 74 105 45
a 74 104 55
a 74 103 95
a 75 106 71
a 75 105 68
a 75 104 23
a 76 107 100
a 76 106 73
a 76 105 75
a 77 108 1
a 77 107 95
a 77 106 39
a 78 109 76
a 78 108 1
a 78 107 51
a 79 110 41
a 79 109 86
a 79 108 70
a 80 111 20
a 80 110 48
a 80 109 18
a 81 112 77
a 81 111 62
a 81 110 12
a 82 113 28
a 82 112 36
a 82 111 3
a 83 114 7
a 83 113 58
a 83 112 63
a 84 115 61
a 84 114 52
a 84 113 27
a 85 116 28
a 85 115 27
a 85 114 23
a 86 117 52
a 86 116 53
a 86 115 46
a 87 118 98
a 87 117 92
a 87 116 97
a 88 119 99
a 88 118 42
a 88 117 97
a 89 120 84
a 89 119 12
a 89 118 25
a 90 121 83
a 90 120 81
a 90 119 17
a 91 92 44
a 91 121 93
a 91 120 37
a 92 123 80
a 92 122 47
a 92 151 13
a 93 124 89
a 93 123 9
a 93 122 93
a 94 125 92
a 94 124 87
a 94 123 99
a 95 126 18
a 95 125 62
a 95 124 11
a 96 127 23
a 96 126 7
a 96 125 38
a 97 128 14
a 97 127 3
a 97 126 41
a 98 129 7
a 98 128 52
a 98 127 39
a 99 130 70
a 99 129 76
a 99 128 89
a 100 131 51
a 100 130 92
a 100 129 24
a 101 132 95
a 101 131 28
a 101 130 6
a 102 133 93
a 102 132 93
a 102 131 2
a 103 134 54
a 103 133 85
a 103 132 33
a 104 135 40
a 104 134 35
a 104 133 73
a 105 136 1
a 105 135 45
a 105 134 64
a 106 137 59
a 106 136 34
a 106 135 34
a 107 138 14
a 107 137 74
a 107 136 56
a 108 139 65
a 108 138 64
a 108 137 69
a 109 140 40
a 109 139 4
a 109 138 27
a 110 141 83
a 110 140 27
a 110 139 97
a 111 142 63
a 111 141 85
a 111 140 99
a 112 143 55
a 112 142 86
a 112 141 45
a 113 144 39
a 113 143 70
a 113 142 37
a 114 145 25
a 114 144 42
a 114 143 90
a 115 146 69
a 115 145 5
a 115 144 82
a 116 147 2
a 116 146 38
a 116 145 34
a 117 148 27
a 117 147 93
a 117 146 93
a 118 149 43
a 118 148 13
a 118 147 58
a 119 150 46
a 119 149 40
a 119 148 22
a 120 151 25
a 120 150 88
a 120 149 13
a 121 122 9
a 121 151 86
a 121 150 95
a 122 153 94
a 122 152 30
a 122 181 9
a 123 154 63
a 123 153 66
a 123 152 63
a 124 155 56
a 124 154 8
a 124 153 53
a 125 156 60
a 125 155 89
a 125 154 77
a 126 157 50
a 126 156 74
a 126 155 97
a 127 158 94
a 127 157 18
a 127 156 50
a 128 159 7
a 128 158 75
a 128 157 29
a 129 160 98
a 129 159 48
a 129 158 71
a 130 161 37
a 130 160 60
a 130 159 68
a 131 162 22
a 131 161 7
a 131 160 92
a 132 163 51
a 132 162 15
a 132 161 100
a 133 164 68
a 133 163 30
a 133 162 45
a 134 165 75
a 134 164 82
a 134 163 59
a 135 166 15
a 135 165 11
a 135 164 14
a 136 167 41
a 136 166 7
a 136 165 26
a 137 168 58
a 137 167 57
a 137 166 75
a 138 169 33
a 138 168 85
a 138 167 68
a 139 170 80
a 139 169 7
a 139 168 26
a 140 171 92
a 140 170 74
a 140 169 75
a 141 172 98
a 141 171 18
a 141 170 11
a 142 173 64
a 142 172 69
a 142 171 32
a 143 174 93
a 143 173 14
a 143 172 34
a 144 175 27
a 144 174 24
a 144 173 2
a 145 176 37
a 145 175 90
a 145 174 28
a 146 177 43
a 146 176 15
a 146 175 95
a 147 178 51
a 147 177 41
a 147 176 35
a 148 179 35
a 148 178 8
a 148 177 92
a 149 180 93
a 149 179 86
a 149 178 76
a 150 181 67
a 150 180 60
a 150 179 8
a 151 152 84
a 151 181 23
a 151 180 51
a 152 183 52
a 152 182 6
a 152 211 100
a 153 184 17
a 153 183 40
a 153 182 63
a 154 185 93
a 154 184 93
a 154 183 8
a 155 186 34
a 155 185 20
a 155 184 34
a 156 187 48
a 156 186 14
a 156 185 22
a 157 188 40
a 157 187 100
a 157 186 64
a 158 189 47
a 158 188 44
a 158 187 67
a 159 190 84
a 159 189 71
a 159 188 1
a 160 191 96
a 160 190 30
a 160 189 46
a 161 192 18
a 161 191 80
a 161 190 12
a 162 193 23
a 162 192 79
a 162 191 47
a 163 194 62
a 163 193 94
a 163 192 50
a 164 195 54
a 164 194 53
a 164 193 19
a 165 196 26
a 165 195 38
a 165 194 63
a 166 197 91
a 166 196 59
a 166 195 96
a 167 198 91
a 167 197 74
a 167 196 95
a 168 199 86
a 168 198 40
a 168 197 34
a 169 200 56
a 169 199 93
a 169 198 32
a 170 201 86
a 170 200 38
a 170 199 16
a 171 202 65
a 171 201 1
a 171 200 11
a 172 203 96
a 172 202 47
a 172 201 80
a 173 204 41
a 173 203 48
a 173 202 2
a 174 205 93
a 174 204 18
a 174 203 16
a 175 206 30
a 175 205 80
a 175 204 21
a 176 207 40
a 176 206 27
a 176 205 46
a 177 208 13
a 177 207 21
a 177 206 89
a 178 209 53
a 178 208 54
a 178 207 31
a 179 210 45
a 179 209 38
a 179 208 16
a 180 211 82
a 180 210 5
a 180 209 71
a 181 182 82
a 181 211 15
a 181 210 56
a 182 213 80
a 182 212 94
a 182 241 73
a 183 214 79
a 183 213 47
a 183 212 20
a 184 215 49
a 184 214 62
a 184 213 60
a 185 216 28
a 185 215 35
a 185 214 4
a 186 217 7
a 186 216 32
a 186 215 85
a 187 218 27
a 187 217 20
a 187 216 24
a 188 219 33
a 188 218 50
a 188 217 36
a 189 220 22
a 189 219 17
a 189 218 40
a 190 221 26
a 190 220 88
a 190 219 84
a 191 222 40
a 191 221 95
a 191 220 17
a 192 223 85
a 192 222 19
a 192 221 98
a 193 224 83
a 193 223 38
a 193 222 29
a 194 225 97
a 194 224 49
a 194 223 8
a 195 226 31
a 195 225 52
a 195 224 8
a 196 227 62
a 196 226 88
a 196 225 87
a 197 228 34
a 197 227 11
a 197 226 93
a 198 229 83
a 198 228 99
a 198 227 20
a 199 230 100
a 199 229 38
a 199 228 4
a 200 231 39
a 200 230 74
a 200 229 25
a 201 232 85
a 201 231 90
a 201 230 50
a 202 233 4
a 202 232 88
a 202 231 41
a 203 234 93
a 203 233 68
a 203 232 77
a 204 235 42
a 204 234 75
a 204 233 11
a 205 236 45
a 205 235 82
a 205 234 7
a 206 237 33
a 206 236 69
a 206 235 89
a 207 238 95
a 207 237 13
a 207 236 51
a 208 239 93
a 208 238 84
a 208 237 84
a 209 240 83
a 209 239 87
a 209 238 18
a 210 241 56
a 210 240 63
a 210 239 69
a 211 212 45
a 211 241 64
a 211 240 59
a 212 243 84
a 212 242 4
a 212 271 44
a 213 244 52
a 213 243 32
a 213 242 99
a 214 245 78
a 214 244 43
a 214 243 91
a 215 246 12
a 215 245 1
a 215 244 84
a 216 247 32
a 216 246 90
a 216 245 29
a 217 248 44
a 217 247 40
a 217 246 13
a 218 249 28
a 218 248 75
a 218 247 7
a 219 250 66
a 219 249 44
a 219 248 52
a 220 251 29
a 220 250 65
a 220 249 86
a 221 252 44
a 221 251 23
a 221 250 93
a 222 253 100
a 222 252 18
a 222 251 37
a 223 254 31
a 223 253 16
a 223 252 21
a 224 255 25
a 224 254 7
a 224 253 24
a 225 256 26
a 225 255 90
a 225 254 1
a 226 257 67
a 226 256 70
a 226 255 12
a 227 258 58
a 227 257 34
a 227 256 95
a 228 259 32
a 228 258 41
a 228 257 39
a 229 260 27
a 229 259 44
a 229 258 18
a 230 261 91
a 230 260 81
a 230 259 35
a 231 262 66
a 231 261 73
a 231 260 63
a 232 263 83
a 232 262 9
a 232 261 59
a 233 264 51
a 233 263 81
a 233 262 58
a 234 265 9
a 234 264 56
a 234 263 40
a 235 266 50
a 235 265 57
a 235 264 65
a 236 267 20
a 236 266 20
a 236 265 42
a 237 268 53
a 237 267 15
a 237 266 8
a 238 269 45
a 238 268 5
a 238 267 65
a 239 270 40
a 239 269 22
a 239 268 48
a 240 271 72
a 240 270 56
a 240 269 74
a 241 242 44
a 241 271 71
a 241 270 17
a 242 273 5
a 242 272 81
a 242 301 34
a 243 274 37
a 243 273 38
a 243 272 68
a 244 275 93
a 244 274 77
a 244 273 18
a 245 276 1
a 245 275 93
a 245 274 78
a 246 277 20
a 246 276 34
a 246 275 28
a 247 278 86
a 247 277 93
a 247 276 99
a 248 279 90
a 248 278 57
a 248 277 3
a 249 280 63
a 249 279 4
a 249 278 48
a 250 281 71
a 250 280 30
a 250 279 39
a 251 282 93
a 251 281 98
a 251 280 11
a 252 283 73
a 252 282 83
a 252 281 6
a 253 284 10
a 253 283 50
a 253 282 62
a 254 285 38
a 254 284 20
a 254 283 99
a 255 286 31
a 255 285 97
a 255 284 91
a 256 287 64
a 256 286 76
a 256 285 91
a 257 288 57
a 257 287 74
a 257 286 62
a 258 289 65
a 258 288 77
a 258 287 48
a 259 290 21
a 259 289 76
a 259 288 89
a 260 291 2
a 260 290 66
a 260 289 52
a 261 292 51
a 261 291 28
a 261 290 74
a 262 293 33
a 262 292 34
a 262 291 66
a 263 294 82
a 263 293 95
a 263 292 38
a 264 295 53
a 264 294 45
a 264 293 99
a 265 296 2
a 265 295 87
a 265 294 36
a 266 297 77
a 266 296 29
a 266 295 18
a 267 298 51
a 267 297 91
a 267 296 82
a 268 299 79
a 268 298 90
a 268 297 90
a 269 300 6
a 269 299 78
a 269 298 6
a 270 301 71
a 270 300 81
a 270 299 26
a 271 272 99
a 271 301 54
a 271 300 27
a 272 303 84
a 272 302 71
a 272 331 77
a 273 304 30
a 273 303 60
a 273 302 61
a 274 305 75
a 274 304 58
a 274 303 43
a 275 306 61
a 275 305 46
a 275 304 47
a 276 307 90
a 276 306 63
a 276 305 48
a 277 308 32
a 277 307 96
a 277 306 25
a 278 309 21
a 278 308 37
a 278 307 27
a 279 310 98
a 279 309 43
a 279 308 5
a 280 311 31
a 280 310 68
a 280 309 10
a 281 312 36
a 281 311 47
a 281 310 32
a 282 313 7
a 282 312 75
a 282 311 30
a 283 314 66
a 283 313 36
a 283 312 65
a 284 315 76
a 284 314 30
a 284 313 95
a 285 316 73
a 285 315 76
a 285 314 69
a 286 317 87
a 286 316 24
a 286 315 81
a 287 318 35
a 287 317 100
a 287 316 70
a 288 319 71
a 288 318 26
a 288 317 1
a 289 320 65
a 289 319 82
a 289 318 21
a 290 321 85
a 290 320 43
a 290 319 71
a 291 322 31
a 291 321 74
a 291 320 53
a 292 323 57
a 292 322 56
a 292 321 88
a 293 324 92
a 293 323 20
a 293 322 46
a 294 325 73
a 294 324 66
a 294 323 64
a 295 326 49
a 295 325 34
a 295 324 91
a 296 327 24
a 296 326 15
a 296 325 63
a 297 328 23
a 297 327 36
a 297 326 49
a 298 329 100
a 298 328 37
a 298 327 35
a 299 330 33
a 299 329 9
a 299 328 6
a 300 331 75
a 300 330 31
a 300 329 70
a 301 302 100
a 301 331 83
a 301 330 54
a 302 333 55
a 302 332 23
a 302 361 36
a 303 334 27
a 303 333 68
a 303 332 93
a 304 335 44
a 304 334 31
a 304 333 36
a 305 336 30
a 305 335 21
a 305 334 9
a 306 337 96
a 306 336 35
a 306 335 9
a 307 338 31
a 307 337 36
a 307 336 32
a 308 339 19
a 308 338 70
a 308 337 6
a 309 340 80
a 309 339 27
a 309 338 5
a 310 341 10
a 310 340 97
a 310 339 89
a 311 342 45
a 311 341 2
a 311 340 63
a 312 343 67
a 312 342 38
a 312 341 62
a 313 344 34
a 313 343 82
a 313 342 69
a 314 345 17
a 314 344 17
a 314 343 47
a 315 346 89
a 315 345 77
a 315 344 90
a 316 347 24
a 316 346 85
a 316 345 19
a 317 348 11
a 317 347 16
a 317 346 14
a 318 349 80
a 318 348 73
a 318 347 97
a 319 350 7
a 319 349 29
a 319 348 15
a 320 351 55
a 320 350 17
a 320 349 94
a 321 352 56
a 321 351 79
a 321 350 56
a 322 353 45
a 322 352 93
a 322 351 100
a 323 354 78
a 323 353 13
a 323 352 66
a 324 355 47
a 324 354 11
a 324 353 51
a 325 356 23
a 325 355 52
a 325 354 19
a 326 357 60
a 326 356 23
a 326 355 8
a 327 358 75
a 327 357 36
a 327 356 83
a 328 359 100
a 328 358 84
a 328 357 45
a 329 360 28
a 329 359 99
a 329 358 24
a 330 361 45
a 330 360 44
a 330 359 82
a 331 332 75
a 331 361 99
a 331 360 88
a 332 363 19
a 332 362 98
a 332 391 96
a 333 364 83
a 333 363 15
a 333 362 92
a 334 365 93
a 334 364 18
a 334 363 70
a 335 366 45
a 335 365 36
a 335 364 16
a 336 367 67
a 336 366 95
a 336 365 90
a 337 368 54
a 337 367 77
a 337 366 49
a 338 369 90
a 338 368 21
a 338 367 76
a 339 370 88
a 339 369 97
a 339 368 75
a 340 371 83
a 340 370 30
a 340 369 54
a 341 372 82
a 341 371 18
a 341 370 98
a 342 373 31
a 342 372 65
a 342 371 25
a 343 374 98
a 343 373 56
a 343 372 95
a 344 375 15
a 344 374 77
a 344 373 78
a 345 376 50
a 345 375 92
a 345 374 70
a 346 377 45
a 346 376 34
a 346 375 66
a 347 378 73
a 347 377 82
a 347 376 84
a 348 379 46
a 348 378 9
a 348 377 90
a 349 380 94
a 349 379 83
a 349 378 79
a 350 381 75
a 350 380 37
a 350 379 18
a 351 382 44
a 351 381 86
a 351 380 100
a 352 383 8
a 352 382 62
a 352 381 33
a 353 384 64
a 353 383 57
a 353 382 16
a 354 385 40
a 354 384 34
a 354 383 13
a 355 386 84
a 355 385 55
a 355 384 79
a 356 387 69
a 356 386 73
a 356 385 28
a 357 388 50
a 357 387 8
a 357 386 24
a 358 389 11
a 358 388 97
a 358 387 49
a 359 390 45
a 359 389 27
a 359 388 94
a 360 391 81
a 360 390 44
a 360 389 39
a 361 362 19
a 361 391 96
a 361 390 13
a 362 393 80
a 362 392 80
a 362 421 57
a 363 394 88
a 363 393 47
a 363 392 64
a 364 395 21
a 364 394 11
a 364 393 79
a 365 396 28
a 365 395 89
a 365 394 71
a 366 397 100
a 366 396 69
a 366 395 6
a 367 398 7
a 367 397 92
a 367 396 74
a 368 399 56
a 368 398 92
a 368 397 75
a 369 400 82
a 369 399 37
a 369 398 85
a 370 401 78
a 370 400 75
a 370 399 30
a 371 402 25
a 371 401 88
a 371 400 62
a 372 403 56
a 372 402 96
a 372 401 32
a 373 404 3
a 373 403 59
a 373 402 64
a 374 405 65
a 374 404 90
a 374 403 51
a 375 406 54
a 375 405 12
a 375 404 24
a 376 407 74
a 376 406 17
a 376 405 51
a 377 408 17
a 377 407 42
a 377 406 50
a 378 409 9
a 378 408 16
a 378 407 8
a 379 410 45
a 379 409 53
a 379 408 63
a 380 411 20
a 380 410 34
a 380 409 97
a 381 412 59
a 381 411 95
a 381 410 74
a 382 413 54
a 382 412 79
a 382 411 50
a 383 414 64
a 383 413 42
a 383 412 5
a 384 415 53
a 384 414 92
a 384 413 59
a 385 416 64
a 385 415 15
a 385 414 24
a 386 417 32
a 386 416 17
a 386 415 29
a 387 418 73
a 387 417 18
a 387 416 2
a 388 419 89
a 388 418 26
a 388 417 18
a 389 420 93
a 389 419 40
a 389 418 26
a 390 421 26
a 390 420 36
a 390 419 23
a 391 392 20
a 391 421 9
a 391 420 42
a 392 423 98
a 392 422 58
a 392 451 52
a 393 424 91
a 393 423 15
a 393 422 5
a 394 425 83
a 394 424 73
a 394 423 68
a 395 426 49
a 395 425 96
a 395 424 73
a 396 427 18
a 396 426 24
a 396 425 36
a 397 428 35
a 397 427 25
a 397 426 68
a 398 429 60
a 398 428 95
a 398 427 92
a 399 430 100
a 399 429 20
a 399 428 80
a 400 431 87
a 400 430 42
a 400 429 24
a 401 432 96
a 401 431 35
a 401 430 49
a 402 433 5
a 402 432 86
a 402 431 21
a 403 434 19
a 403 433 42
a 403 432 18
a 404 435 92
a 404 434 62
a 404 433 61
a 405 436 39
a 405 435 34
a 405 434 95
a 406 437 63
a 406 436 21
a 406 435 95
a 407 438 39
a 407 437 40
a 407 436 12
a 408 439 33
a 408 438 32
a 408 437 47
a 409 440 5
a 409 439 63
a 409 438 58
a 410 441 98
a 410 440 87
a 410 439 9
a 411 442 85
a 411 441 35
a 411 440 96
a 412 443 22
a 412 442 55
a 412 441 43
a 413 444 64
a 413 443 25
a 413 442 99
a 414 445 77
a 414 444 85
a 414 443 18
a 415 446 10
a 415 445 31
a 415 444 61
a 416 447 30
a 416 446 25
a 416 445 99
a 417 448 70
a 417 447 37
a 417 446 13
a 418 449 53
a 418 448 35
a 418 447 4
a 419 450 15
a 419 449 44
a 419 448 88
a 420 451 1
a 420 450 5
a 420 449 44
a 421 422 88
a 421 451 100
a 421 450 94
a 422 453 94
a 422 452 94
a 422 481 30
a 423 454 70
a 423 453 92
a 423 452 51
a 424 455 54
a 424 454 61
a 424 453 66
a 425 456 36
a 425 455 21
a 425 454 42
a 426 457 61
a 426 456 72
a 426 455 3
a 427 458 97
a 427 457 36
a 427 456 33
a 428 459 83
a 428 458 91
a 428 457 54
a 429 460 26
a 429 459 79
a 429 458 6
a 430 461 30
a 430 460 74
a 430 459 72
a 431 462 81
a 431 461 67
a 431 460 73
a 432 463 74
a 432 462 96
a 432 461 12
a 433 464 18
a 433 463 99
a 433 462 5
a 434 465 78
a 434 464 16
a 434 463 75
a 435 466 51
a 435 465 58
a 435 464 80
a 436 467 74
a 436 466 60
a 436 465 16
a 437 468 9
a 437 467 44
a 437 466 76
a 438 469 52
a 438 468 49
a 438 467 24
a 439 470 82
a 439 469 6
a 439 468 58
a 440 471 55
a 440 470 78
a 440 469 83
a 441 472 74
a 441 471 2
a 441 470 65
a 442 473 21
a 442 472 13
a 442 471 45
a 443 474 19
a 443 473 69
a 443 472 71
a 444 475 35
a 444 474 95
a 444 473 40
a 445 476 44
a 445 475 75
a 445 474 17
a 446 477 55
a 446 476 42
a 446 475 19
a 447 478 51
a 447 477 69
a 447 476 92
a 448 479 99
a 448 478 92
a 448 477 53
a 449 480 5
a 449 479 1
a 449 478 4
a 450 481 82
a 450 480 83
a 450 479 37
a 451 452 35
a 451 481 99
a 451 480 91
a 452 483 47
a 452 482 96
a 452 511 16
a 453 484 67
a 453 483 18
a 453 482 37
a 454 485 62
a 454 484 57
a 454 483 7
a 455 486 36
a 455 485 25
a 455 484 93
a 456 487 29
a 456 486 44
a 456 485 36
a 457 488 97
a 457 487 87
a 457 486 91
a 458 489 40
a 458 488 39
a 458 487 41
a 459 490 40
a 459 489 94
a 459 488 91
a 460 491 74
a 460 490 30
a 460 489 95
a 461 492 73
a 461 491 73
a 461 490 28
a 462 493 68
a 462 492 88
a 462 491 62
a 463 494 85
a 463 493 76
a 463 492 60
a 464 495 41
a 464 494 83
a 464 493 27
a 465 496 17
a 465 495 75
a 465 494 40
a 466 497 60
a 466 496 63
a 466 495 75
a 467 498 99
a 467 497 5
a 467 496 55
a 468 499 37
a 468 498 97
a 468 497 51
a 469 500 83
a 469 499 87
a 469 498 42
a 470 501 64
a 470 500 34
a 470 499 81
a 471 502 88
a 471 501 61
a 471 500 54
a 472 503 28
a 472 502 75
a 472 501 26
a 473 504 3
a 473 503 86
a 473 502 45
a 474 505 85
a 474 504 64
a 474 503 81
a 475 506 12
a 475 505 3
a 475 504 73
a 476 507 74
a 476 506 29
a 476 505 90
a 477 508 78
a 477 507 83
a 477 506 1
a 478 509 74
a 478 508 33
a 478 507 99
a 479 510 12
a 479 509 74
a 479 508 88
a 480 511 45
a 480 510 6
a 480 509 70
a 481 482 58
a 481 511 60
a 481 510 85
a 482 513 32
a 482 512 37
a 482 541 73
a 483 514 69
a 483 513 34
a 483 512 100
a 484 515 33
a 484 514 14
a 484 513 54
a 485 516 35
a 485 515 87
a 485 514 91
a 486 517 64
a 486 516 28
a 486 515 2
a 487 518 46
a 487 517 28
a 487 516 27
a 488 519 31
a 488 518 79
a 488 517 4
a 489 520 56
a 489 519 66
a 489 518 29
a 490 521 62
a 490 520 87
a 490 519 40
a 491 522 73
a 491 521 71
a 491 520 85
a 492 523 61
a 492 522 95
a 492 521 42
a 493 524 94
a 493 523 46
a 493 522 25
a 494 525 60
a 494 524 100
a 494 523 93
a 495 526 98
a 495 525 90
a 495 524 25
a 496 527 25
a 496 526 91
a 496 525 12
a 497 528 4
a 497 527 69
a 497 526 75
a 498 529 82
a 498 528 72
a 498 527 72
a 499 530 47
a 499 529 52
a 499 528 2
a 500 531 33
a 500 530 91
a 500 529 58
a 501 532 56
a 501 531 27
a 501 530 19
a 502 533 2
a 502 532 20
a 502 531 91
a 503 534 48
a 503 533 96
a 503 532 51
a 504 535 47
a 504 534 41
a 504 533 97
a 505 536 88
a 505 535 17
a 505 534 56
a 506 537 30
a 506 536 28
a 506 535 53
a 507 538 98
a 507 537 2
a 507 536 29
a 508 539 69
a 508 538 74
a 508 537 32
a 509 540 72
a 509 539 27
a 509 538 14
a 510 541 14
a 510 540 84
a 510 539 12
a 511 512 41
a 511 541 54
a 511 540 45
a 512 543 12
a 512 542 96
a 512 571 52
a 513 544 8
a 513 543 99
a 513 542 53
a 514 545 48
a 514 544 95
a 514 543 100
a 515 546 16
a 515 545 2
a 515 544 98
a 516 547 44
a 516 546 54
a 516 545 85
a 517 548 97
a 517 547 82
a 517 546 14
a 518 549 22
a 518 548 65
a 518 547 11
a 519 550 49
a 519 549 78
a 519 548 31
a 520 551 84
a 520 550 42
a 520 549 54
a 521 552 38
a 521 551 38
a 521 550 68
a 522 553 33
a 522 552 89
a 522 551 60
a 523 554 31
a 523 553 93
a 523 552 71
a 524 555 77
a 524 554 93
a 524 553 30
a 525 556 78
a 525 555 42
a 525 554 29
a 526 557 31
a 526 556 79
a 526 555 45
a 527 558 64
a 527 557 92
a 527 556 88
a 528 559 29
a 528 558 55
a 528 557 84
a 529 560 58
a 529 559 37
a 529 558 58
a 530 561 99
a 530 560 91
a 530 559 6
a 531 562 88
a 531 561 58
a 531 560 89
a 532 563 76
a 532 562 17
a 532 561 26
a 533 564 69
a 533 563 39
a 533 562 11
a 534 565 13
a 534 564 69
a 534 563 93
a 535 566 54
a 535 565 97
a 535 564 70
a 536 567 84
a 536 566 93
a 536 565 47
a 537 568 76
a 537 567 80
a 537 566 30
a 538 569 82
a 538 568 16
a 538 567 45
a 539 570 70
a 539 569 73
a 539 568 73
a 540 571 60
a 540 570 30
a 540 569 83
a 541 542 69
a 541 571 18
a 541 570 33
a 542 573 37
a 542 572 96
a 542 601 21
a 543 574 76
a 543 573 6
a 543 572 48
a 544 575 96
a 544 574 98
a 544 573 16
a 545 576 44
a 545 575 19
a 545 574 80
a 546 577 37
a 546 576 66
a 546 575 86
a 547 578 68
a 547 577 47
a 547 576 69
a 548 579 35
a 548 578 91
a 548 577 96
a 549 580 7
a 549 579 16
a 549 578 77
a 550 581 36
a 550 580 98
a 550 579 47
a 551 582 6
a 551 581 82
a 551 580 58
a 552 583 1
a 552 582 2
a 552 581 79
a 553 584 58
a 553 583 2
a 553 582 15
a 554 585 7
a 554 584 17
a 554 583 42
a 555 586 26
a 555 585 49
a 555 584 37
a 556 587 43
a 556 586 34
a 556 585 33
a 557 588 89
a 557 587 54
a 557 586 69
a 558 589 79
a 558 588 50
a 558 587 88
a 559 590 94
a 559 589 78
a 559 588 23
a 560 591 43
a 560 590 76
a 560 589 81
a 561 592 25
a 561 591 34
a 561 590 17
a 562 593 78
a 562 592 12
a 562 591 74
a 563 594 79
a 563 593 78
a 563 592 74
a 564 595 48
a 564 594 20
a 564 593 83
a 565 596 48
a 565 595 8
a 565 594 41
a 566 597 33
a 566 596 40
a 566 595 66
a 567 598 86
a 567 597 60
a 567 596 60
a 568 599 35
a 568 598 100
a 568 597 100
a 569 600 65
a 569 599 22
a 569 598 31
a 570 601 40
a 570 600 2
a 570 599 24
a 571 572 25
a 571 601 70
a 571 600 19
a 572 603 88
a 572 602 43
a 572 631 95
a 573 604 66
a 573 603 68
a 573 602 72
a 574 605 37
a 574 604 2
a 574 603 3
a 575 606 44
a 575 605 43
a 575 604 2
a 576 607 36
a 576 606 60
a 576 605 49
a 577 608 47
a 577 607 20
a 577 606 81
a 578 609 46
a 578 608 71
a 578 607 18
a 579 610 19
a 579 609 1
a 579 608 5
a 580 611 21
a 580 610 25
a 580 609 69
a 581 612 42
a 581 611 95
a 581 610 8
a 582 613 85
a 582 612 89
a 582 611 85
a 583 614 4
a 583 613 12
a 583 612 72
a 584 615 6
a 584 614 66
a 584 613 89
a 585 616 100
a 585 615 67
a 585 614 25
a 586 617 59
a 586 616 67
a 586 615 21
a 587 618 30
a 587 617 99
a 587 616 56
a 588 619 1
a 588 618 17
a 588 617 54
a 589 620 1
a 589 619 21
a 589 618 52
a 590 621 77
a 590 620 41
a 590 619 70
a 591 622 23
a 591 621 100
a 591 620 90
a 592 623 11
a 592 622 84
a 592 621 84
a 593 624 75
a 593 623 56
a 593 622 20
a 594 625 40
a 594 624 96
a 594 623 23
a 595 626 59
a 595 625 21
a 595 624 80
a 596 627 25
a 596 626 41
a 596 625 79
a 597 628 76
a 597 627 48
a 597 626 90
a 598 629 92
a 598 628 53
a 598 627 71
a 599 630 64
a 599 629 4
a 599 628 23
a 600 631 4
a 600 630 74
a 600 629 24
a 601 602 3
a 601 631 15
a 601 630 52
a 602 633 87
a 602 632 98
a 602 661 27
a 603 634 94
a 603 633 17
a 603 632 37
a 604 635 89
a 604 634 92
a 604 633 63
a 605 636 61
a 605 635 71
a 605 634 3
a 606 637 53
a 606 636 2
a 606 635 13
a 607 638 100
a 607 637 43
a 607 636 37
a 608 639 5
a 608 638 13
a 608 637 12
a 609 640 8
a 609 639 36
a 609 638 55
a 610 641 81
a 610 640 11
a 610 639 70
a 611 642 96
a 611 641 14
a 611 640 73
a 612 643 45
a 612 642 40
a 612 641 28
a 613 644 62
a 613 643 29
a 613 642 14
a 614 645 53
a 614 644 43
a 614 643 59
a 615 646 75
a 615 645 45
a 615 644 99
a 616 647 28
a 616 646 9
a 616 645 60
a 617 648 22
a 617 647 46
a 617 646 12
a 618 649 35
a 618 648 9
a 618 647 64
a 619 650 22
a 619 649 16
a 619 648 68
a 620 651 84
a 620 650 85
a 620 649 75
a 621 652 49
a 621 651 10
a 621 650 8
a 622 653 41
a 622 652 37
a 622 651 3
a 623 654 21
a 623 653 2
a 623 652 99
a 624 655 63
a 624 654 60
a 624 653 60
a 625 656 60
a 625 655 58
a 625 654 64
a 626 657 68
a 626 656 69
a 626 655 91
a 627 658 65
a 627 657 81
a 627 656 70
a 628 659 26
a 628 658 96
a 628 657 92
a 629 660 41
a 629 659 63
a 629 658 78
a 630 661 25
a 630 660 37
a 630 659 51
a 631 632 86
a 631 661 96
a 631 660 86
a 632 663 22
a 632 662 98
a 632 691 34
a 633 664 23
a 633 663 49
a 633 662 26
a 634 665 82
a 634 664 8
a 634 663 46
a 635 666 92
a 635 665 24
a 635 664 61
a 636 667 12
a 636 666 66
a 636 665 20
a 637 668 92
a 637 667 35
a 637 666 87
a 638 669 39
a 638 668 26
a 638 667 52
a 639 670 1
a 639 669 55
a 639 668 77
a 640 671 90
a 640 670 5
a 640 669 69
a 641 672 85
a 641 671 90
a 641 670 45
a 642 673 35
a 642 672 76
a 642 671 31
a 643 674 83
a 643 673 1
a 643 672 52
a 644 675 42
a 644 674 99
a 644 673 75
a 645 676 17
a 645 675 59
a 645 674 8
a 646 677 82
a 646 676 78
a 646 675 51
a 647 678 69
a 647 677 16
a 647 676 63
a 648 679 94
a 648 678 19
a 648 677 6
a 649 680 49
a 649 679 47
a 649 678 45
a 650 681 5
a 650 680 15
a 650 679 45
a 651 682 95
a 651 681 12
a 651 680 86
a 652 683 70
a 652 682 42
a 652 681 23
a 653 684 22
a 653 683 45
a 653 682 57
a 654 685 20
a 654 684 71
a 654 683 91
a 655 686 78
a 655 685 79
a 655 684 32
a 656 687 7
a 656 686 29
a 656 685 49
a 657 688 23
a 657 687 43
a 657 686 82
a 658 689 93
a 658 688 49
a 658 687 50
a 659 690 40
a 659 689 93
a 659 688 96
a 660 691 6
a 660 690 89
a 660 689 44
a 661 662 17
a 661 691 27
a 661 690 100
a 662 693 10
a 662 692 49
a 662 721 94
a 663 694 55
a 663 693 5
a 663 692 15
a 664 695 77
a 664 694 95
a 664 693 37
a 665 696 55
a 665 695 78
a 665 694 56
a 666 697 36
a 666 696 26
a 666 695 86
a 667 698 78
a 667 697 60
a 667 696 92
a 668 699 26
a 668 698 9
a 668 697 14
a 669 700 70
a 669 699 4
a 669 698 59
a 670 701 11
a 670 700 99
a 670 699 98
a 671 702 37
a 671 701 99
a 671 700 55
a 672 703 85
a 672 702 92
a 672 701 72
a 673 704 41
a 673 703 59
a 673 702 33
a 674 705 87
a 674 704 95
a 674 703 39
a 675 706 64
a 675 705 50
a 675 704 16
a 676 707 42
a 676 706 87
a 676 705 70
a 677 708 1
a 677 707 79
a 677 706 57
a 678 709 9
a 678 708 44
a 678 707 35
a 679 710 65
a 679 709 2
a 679 708 12
a 680 711 63
a 680 710 51
a 680 709 34
a 681 712 61
a 681 711 6
a 681 710 44
a 682 713 5
a 682 712 29
a 682 711 32
a 683 714 63
a 683 713 61
a 683 712 68
a 684 715 57
a 684 714 100
a 684 713 8
a 685 716 58
a 685 715 67
a 685 714 46
a 686 717 45
a 686 716 88
a 686 715 61
a 687 718 75
a 687 717 45
a 687 716 2
a 688 719 18
a 688 718 31
a 688 717 54
a 689 720 20
a 689 719 94
a 689 718 15
a 690 721 22
a 690 720 27
a 690 719 79
a 691 692 27
a 691 721 22
a 691 720 41
a 692 723 55
a 692 722 53
a 692 751 2
a 693 724 16
a 693 723 20
a 693 722 58
a 694 725 67
a 694 724 79
a 694 723 20
a 695 726 85
a 695 725 24
a 695 724 28
a 696 727 72
a 696 726 85
a 696 725 37
a 697 728 16
a 697 727 38
a 697 726 33
a 698 729 98
a 698 728 92
a 698 727 7
a 699 730 92
a 699 729 58
a 699 728 25
a 700 731 18
a 700 730 36
a 700 729 96
a 701 732 40
a 701 731 76
a 701 730 17
a 702 733 44
a 702 732 29
a 702 731 96
a 703 734 64
a 703 733 86
a 703 732 50
a 704 735 42
a 704 734 57
a 704 733 17
a 705 736 18
a 705 735 36
a 705 734 35
a 706 737 2
a 706 736 73
a 706 735 19
a 707 738 91
a 707 737 5
a 707 736 91
a 708 739 82
a 708 738 64
a 708 737 58
a 709 740 39
a 709 739 88
a 709 738 56
a 710 741 26
a 710 740 35
a 710 739 99
a 711 742 2
a 711 741 3
a 711 740 16
a 712 743 82
a 712 742 50
a 712 741 7
a 713 744 20
a 713 743 100
a 713 742 51
a 714 745 28
a 714 744 68
a 714 743 66
a 715 746 64
a 715 745 3
a 715 744 7
a 716 747 36
a 716 746 21
a 716 745 24
a 717 748 92
a 717 747 11
a 717 746 77
a 718 749 55
a 718 748 21
a 718 747 68
a 719 750 94
a 719 749 76
a 719 748 1
a 720 751 80
a 720 750 74
a 720 749 92
a 721 722 83
a 721 751 41
a 721 750 17
a 722 753 32
a 722 752 100
a 722 781 70
a 723 754 83
a 723 753 2
a 723 752 4
a 724 755 51
a 724 754 67
a 724 753 23
a 725 756 53
a 725 755 73
a 725 754 50
a 726 757 25
a 726 756 49
a 726 755 13
a 727 758 36
a 727 757 25
a 727 756 100
a 728 759 56
a 728 758 44
a 728 757 92
a 729 760 83
a 729 759 45
a 729 758 46
a 730 761 8
a 730 760 88
a 730 759 40
a 731 762 100
a 731 761 4
a 731 760 19
a 732 763 99
a 732 762 26
a 732 761 53
a 733 764 100
a 733 763 29
a 733 762 37
a 734 765 66
a 734 764 51
a 734 763 71
a 735 766 91
a 735 765 52
a 735 764 21
a 736 767 91
a 736 766 17
a 736 765 25
a 737 768 67
a 737 767 16
a 737 766 50
a 738 769 11
a 738 768 59
a 738 767 37
a 739 770 7
a 739 769 57
a 739 768 44
a 740 771 94
a 740 770 48
a 740 769 26
a 741 772 49
a 741 771 18
a 741 770 85
a 742 773 74
a 742 772 71
a 742 771 84
a 743 774 2
a 743 773 59
a 743 772 35
a 744 775 4
a 744 774 29
a 744 773 86
a 745 776 56
a 745 775 2
a 745 774 52
a 746 777 24
a 746 776 78
a 746 775 94
a 747 778 39
a 747 777 27
a 747 776 36
a 748 779 50
a 748 778 15
a 748 777 2
a 749 780 6
a 749 779 58
a 749 778 64
a 750 781 53
a 750 780 35
a 750 779 22
a 751 752 22
a 751 781 19
a 751 780 67
a 752 783 44
a 752 782 55
a 752 811 16
a 753 784 2
a 753 783 89
a 753 782 41
a 754 785 83
a 754 784 74
a 754 783 95
a 755 786 36
a 755 785 77
a 755 784 98
a 756 787 13
a 756 786 22
a 756 785 5
a 757 788 92
a 757 787 57
a 757 786 28
a 758 789 6
a 758 788 11
a 758 787 19
a 759 790 64
a 759 789 26
a 759 788 20
a 760 791 50
a 760 790 48
a 760 789 25
a 761 792 21
a 761 791 66
a 761 790 29
a 762 793 75
a 762 792 81
a 762 791 50
a 763 794 15
a 763 793 74
a 763 792 46
a 764 795 40
a 764 794 68
a 764 793 47
a 765 796 69
a 765 795 17
a 765 794 81
a 766 797 90
a 766 796 74
a 766 795 16
a 767 798 99
a 767 797 53
a 767 796 81
a 768 799 61
a 768 798 71
a 768 797 24
a 769 800 86
a 769 799 42
a 769 798 29
a 770 801 85
a 770 800 18
a 770 799 44
a 771 802 51
a 771 801 98
a 771 800 46
a 772 803 83
a 772 802 48
a 772 801 66
a 773 804 56
a 773 803 93
a 773 802 92
a 774 805 75
a 774 804 91
a 774 803 6
a 775 806 44
a 775 805 24
a 775 804 97
a 776 807 17
a 776 806 91
a 776 805 65
a 777 808 69
a 777 807 71
a 777 806 7
a 778 809 92
a 778 808 46
a 778 807 57
a 779 810 33
a 779 809 75
a 779 808 17
a 780 811 51
a 780 810 70
a 780 809 54
a 781 782 48
a 781 811 15
a 781 810 91
a 782 813 47
a 782 812 80
a 782 841 41
a 783 814 91
a 783 813 71
a 783 812 75
a 784 815 34
a 784 814 28
a 784 813 31
a 785 816 57
a 785 815 25
a 785 814 57
a 786 817 47
a 786 816 89
a 786 815 100
a 787 818 70
a 787 817 47
a 787 816 68
a 788 819 15
a 788 818 3
a 788 817 37
a 789 820 41
a 789 819 71
a 789 818 28
a 790 821 63
a 790 820 25
a 790 819 12
a 791 822 77
a 791 821 15
a 791 820 62
a 792 823 9
a 792 822 7
a 792 821 62
a 793 824 31
a 793 823 81
a 793 822 8
a 794 825 59
a 794 824 63
a 794 823 51
a 795 826 83
a 795 825 20
a 795 824 84
a 796 827 23
a 796 826 71
a 796 825 40
a 797 828 70
a 797 827 39
a 797 826 38
a 798 829 24
a 798 828 27
a 798 827 59
a 799 830 95
a 799 829 6
a 799 828 26
a 800 831 19
a 800 830 17
a 800 829 66
a 801 832 85
a 801 831 79
a 801 830 80
a 802 833 43
a 802 832 40
a 802 831 57
a 803 834 23
a 803 833 99
a 803 832 17
a 804 835 86
a 804 834 49
a 804 833 47
a 805 836 57
a 805 835 84
a 805 834 5
a 806 837 79
a 806 836 75
a 806 835 39
a 807 838 69
a 807 837 13
a 807 836 14
a 808 839 95
a 808 838 23
a 808 837 35
a 809 840 100
a 809 839 48
a 809 838 58
a 810 841 17
a 810 840 66
a 810 839 4
a 811 812 47
a 811 841 45
a 811 840 22
a 812 843 38
a 812 842 53
a 812 871 58
a 813 844 88
a 813 843 69
a 813 842 100
a 814 845 89
a 814 844 16
a 814 843 75
a 815 846 72
a 815 845 72
a 815 844 12
a 816 847 47
a 816 846 11
a 816 845 68
a 817 848 11
a 817 847 76
a 817 846 98
a 818 849 33
a 818 848 10
a 818 847 67
a 819 850 33
a 819 849 19
a 819 848 13
a 820 851 98
a 820 850 23
a 820 849 65
a 821 852 42
a 821 851 96
a 821 850 33
a 822 853 95
a 822 852 6
a 822 851 79
a 823 854 15
a 823 853 5
a 823 852 68
a 824 855 30
a 824 854 31
a 824 853 55
a 825 856 2
a 825 855 42
a 825 854 43
a 826 857 64
a 826 856 61
a 826 855 67
a 827 858 39
a 827 857 59
a 827 856 13
a 828 859 100
a 828 858 77
a 828 857 75
a 829 860 18
a 829 859 41
a 829 858 7
a 830 861 92
a 830 860 5
a 830 859 39
a 831 862 40
a 831 861 37
a 831 860 88
a 832 863 45
a 832 862 67
a 832 861 30
a 833 864 1
a 833 863 86
a 833 862 76
a 834 865 32
a 834 864 93
a 834 863 90
a 835 866 73
a 835 865 87
a 835 864 72
a 836 867 34
a 836 866 53
a 836 865 73
a 837 868 44
a 837 867 17
a 837 866 88
a 838 869 20
a 838 868 91
a 838 867 26
a 839 870 60
a 839 869 50
a 839 868 77
a 840 871 17
a 840 870 40
a 840 869 94
a 841 842 5
a 841 871 28
a 841 870 38
a 842 873 24
a 842 872 9
a 842 901 77
a 843 874 9
a 843 873 36
a 843 872 21
a 844 875 1
a 844 874 77
a 844 873 21
a 845 876 88
a 845 875 48
a 845 874 4
a 846 877 92
a 846 876 72
a 846 875 77
a 847 878 9
a 847 877 59
a 847 876 62
a 848 879 99
a 848 878 84
a 848 877 5
a 849 880 100
a 849 879 60
a 849 878 76
a 850 881 40
a 850 880 6
a 850 879 87
a 851 882 19
a 851 881 95
a 851 880 55
a 852 883 27
a 852 882 71
a 852 881 60
a 853 884 14
a 853 883 43
a 853 882 83
a 854 885 90
a 854 884 15
a 854 883 43
a 855 886 90
a 855 885 19
a 855 884 96
a 856 887 61
a 856 886 47
a 856 885 83
a 857 888 20
a 857 887 60
a 857 886 74
a 858 889 55
a 858 888 16
a 858 887 34
a 859 890 67
a 859 889 91
a 859 888 33
a 860 891 24
a 860 890 29
a 860 889 84
a 861 892 18
a 861 891 84
a 861 890 75
a 862 893 40
a 862 892 95
a 862 891 93
a 863 894 34
a 863 893 29
a 863 892 71
a 864 895 48
a 864 894 71
a 864 893 84
a 865 896 18
a 865 895 66
a 865 894 26
a 866 897 16
a 866 896 100
a 866 895 15
a 867 898 75
a 867 897 26
a 867 896 27
a 868 899 42
a 868 898 59
a 868 897 98
a 869 900 32
a 869 899 43
a 869 898 53
a 870 901 13
a 870 900 27
a 870 899 71
a 871 872 96
a 871 901 1
a 871 900 94
a 872 902 300
a 873 902 300
a 874 902 300
a 875 902 300
a 876 902 300
a 877 902 300
a 878 902 300
a 879 902 300
a 880 902 300
a 881 902 300
a 882 902 300
a 883 902 300
a 884 902 300
a 885 902 300
a 886 902 300
a 887 902 300
a 888 902 300
a 889 902 300
a 890 902 300
a 891 902 300
a 892 902 300
a 893 902 300
a 894 902 300
a 895 902 300
a 896 902 300
a 897 902 300
a 898 902 300
a 899 902 300
a 900 902 300
a 901 902 300
